NAME : instances/clustered-mixed-tsp/instance-28.tsp
COMMENT : No Comment
TYPE : TSP
DIMENSION: 48
EDGE_WEIGHT_TYPE : EUC_2D
NODE_COORD_SECTION
1 12 815 
2 424 278 
3 532 285 
4 1166 1004 
5 1607 799 
6 1022 240 
7 406 1798 
8 563 776 
9 1082 1493 
10 224 378 
11 1421 376 
12 1702 668 
13 1788 1276 
14 906 652 
15 1443 1436 
16 56 1933 
17 1084 846 
18 1842 1641 
19 346 683 
20 786 1896 
21 885 1841 
22 1022 307 
23 1051 182 
24 168 67 
25 1154 733 
26 651 1540 
27 1763 406 
28 697 516 
29 287 851 
30 1198 1113 
31 1902 603 
32 1754 1023 
33 1544 1977 
34 1885 1810 
35 1505 1434 
36 1997 921 
37 1826 757 
38 1509 525 
39 505 1369 
40 594 506 
41 696 1913 
42 334 460 
43 1942 1641 
44 434 765 
45 1370 1214 
46 1279 1303 
47 716 1948 
48 1847 792 
EOF
